120 150

44
40
42
44
44
44
55
44
42
55
41
55
41
44
46
47
57
40
40
40
51
49
50
57
48
45
40
53
58
41
51
40
40
40
52
50
48
40
53
58
51
41
50
54
46
60
44
46
40
40
40
57
52
41
43
50
57
45
55
44
40
52
60
45
46
40
42
40
51
59
52
48
50
40
51
60
45
45
53
50
47
47
45
58
40
51
60
40
52
50
48
46
48
56
59
48
43
50
48
52
40
58
52
58
53
47
49
55
41
58
50
42
43
56
51
48
49
54
49
47